ALNS Jupyter Notebook/model.lp
\ Model Scheduling
\ LP format - for model browsing. Use MPS format to capture full model detail.
Minimize
  Z_0 + Z_1 + Z_2 + Z_3 + Z_4 + Z_5 + Z_6 + Z_7 + Z_8 + Z_9 + Z_10 + Z_11
   + Z_12 + Z_13 + Z_14 + Z_15 + Z_16 - S_1 + S_16
Subject To
 Headway_0: S_0 - D_0 <= -11.74737344666667
 Headway_1: S_1 - D_1 <= -20.53333333333333
 Headway_2: S_2 - D_2 <= -14.17733333333333
 Headway_3: S_3 - D_3 <= -14.77
 Headway_4: S_4 - D_4 <= -19.066
 Headway_5: S_5 - D_5 <= -22.82943508
 Headway_6: S_6 - D_6 <= -13.644101746
 Headway_7: S_7 - D_7 <= -22.74076344
 Headway_8: S_8 - D_8 <= -15.71809677666667
 Headway_9: S_9 - D_9 <= -17.526
 Headway_10: S_10 - D_10 <= -21.822
 Headway_11: S_11 - D_11 <= -22.82943508
 Headway_12: S_12 - D_12 <= -13.644101746
 Headway_13: S_13 - D_13 <= -22.74076344
 Headway_14: S_14 - D_14 <= -15.71809677666667
 Headway_15: S_15 - D_15 <= -17.526
 Headway_16: S_16 - D_16 <= -13.926
 Dest_0=Src1: - S_1 + D_0 = 0
 Dest_1=Src2: - S_2 + D_1 = 0
 Dest_2=Src3: - S_3 + D_2 = 0
 Dest_3=Src4: - S_4 + D_3 = 0
 Dest_4=Src5: - S_5 + D_4 = 0
 Dest_5=Src6: - S_6 + D_5 = 0
 Dest_6=Src7: - S_7 + D_6 = 0
 Dest_7=Src8: - S_8 + D_7 = 0
 Dest_8=Src9: - S_9 + D_8 = 0
 Dest_9=Src10: - S_10 + D_9 = 0
 Dest_10=Src11: - S_11 + D_10 = 0
 Dest_11=Src12: - S_12 + D_11 = 0
 Dest_12=Src13: - S_13 + D_12 = 0
 Dest_13=Src14: - S_14 + D_13 = 0
 Dest_14=Src15: - S_15 + D_14 = 0
 Dest_15=Src16: - S_16 + D_15 = 0
 S_0>=EPT_0: S_0 >= 0
 S_1>=EPT_1: S_1 >= 60
 S_2>=EPT_2: S_2 >= 0
 S_3>=EPT_3: S_3 >= 105
 S_4>=EPT_4: S_4 >= 0
 S_5>=EPT_5: S_5 >= 120
 S_6>=EPT_6: S_6 >= 0
 S_7>=EPT_7: S_7 >= 300
 S_8>=EPT_8: S_8 >= 0
 S_9>=EPT_9: S_9 >= 400
 S_10>=EPT_10: S_10 >= 0
 S_11>=EPT_11: S_11 >= 491
 S_12>=EPT_12: S_12 >= 0
 S_13>=EPT_13: S_13 >= 590
 S_14>=EPT_14: S_14 >= 0
 S_15>=EPT_15: S_15 >= 689
 S_16>=EPT_16: S_16 >= 0
 Z_1>=D_1-LDT_1: Z_1 - D_1 >= -65
 Z_3>=D_3-LDT_3: Z_3 - D_3 >= -140
 Z_5>=D_5-LDT_5: Z_5 - D_5 >= -270
 Z_7>=D_7-LDT_7: Z_7 - D_7 >= -437
 Z_9>=D_9-LDT_9: Z_9 - D_9 >= -471
 Z_11>=D_11-LDT_11: Z_11 - D_11 >= -544
 Z_13>=D_13-LDT_13: Z_13 - D_13 >= -651
 Z_15>=D_15-LDT_15: Z_15 - D_15 >= -829
 B_0_init: B_0 = 100
 B_0: - B_0 + B_1 = -5.873686723333333
 B_1: - B_1 + B_2 = -5.266666666666667
 B_2: - B_2 + B_3 = -2.088666666666667
 B_3: - B_3 + B_4 = -2.385
 B_4: - B_4 + B_5 = -4.533
 B_5: - B_5 + B_6 = -6.41471754
 B_6: - B_6 + B_7 = -1.822050873
 B_7: - B_7 + B_8 = -6.370381719999999
 B_8: - B_8 + B_9 = -2.859048388333333
 B_9: - B_9 + B_10 = -3.763
 B_10: - B_10 + B_11 = -5.911
 B_11: - B_11 + B_12 = -6.41471754
 B_12: - B_12 + B_13 = -1.822050873
 B_13: - B_13 + B_14 = -6.370381719999999
 B_14: - B_14 + B_15 = -2.859048388333333
 B_15: - B_15 + B_16 = -3.763
Bounds
 B_0 <= 100
 30 <= B_1 <= 100
 30 <= B_2 <= 100
 30 <= B_3 <= 100
 30 <= B_4 <= 100
 30 <= B_5 <= 100
 30 <= B_6 <= 100
 30 <= B_7 <= 100
 30 <= B_8 <= 100
 30 <= B_9 <= 100
 30 <= B_10 <= 100
 30 <= B_11 <= 100
 30 <= B_12 <= 100
 30 <= B_13 <= 100
 30 <= B_14 <= 100
 30 <= B_15 <= 100
 30 <= B_16 <= 100
End
